src/asp/benchmarks/large6.lp
citta(perugia).
citta(terni).
citta(assisi).
citta(spoleto).
citta(corciano).
citta(gualdo_tardino).
citta(magione).
citta(citta_di_castello).
citta(gubbio).
citta(marsciano).
citta(amelia).
citta(narni).
citta(umbertide).
citta(bastia_umbra).
citta(foligno).
citta(castiglione_del_lago).
citta(san_giustino).
citta(orvieto).
citta(todi).

richiesta(perugia, strade, 89).
richiesta(perugia, fiumi, 54).
richiesta(perugia, scuole, 131).
richiesta(perugia, parchi, 217).
richiesta(perugia, energia, 105).

richiesta(terni, strade, 115).
richiesta(terni, fiumi, 284).
richiesta(terni, scuole, 21).
richiesta(terni, parchi, 201).
richiesta(terni, energia, 422).

richiesta(assisi, strade, 117).
richiesta(assisi, fiumi, 14).
richiesta(assisi, scuole, 43).
richiesta(assisi, parchi, 6).
richiesta(assisi, energia, 46).

richiesta(spoleto, strade, 237).
richiesta(spoleto, fiumi, 42).
richiesta(spoleto, scuole, 28).
richiesta(spoleto, parchi, 36).
richiesta(spoleto, energia, 82).

richiesta(corciano, strade, 21).
richiesta(corciano, fiumi, 48).
richiesta(corciano, scuole, 278).
richiesta(corciano, parchi, 124).
richiesta(corciano, energia, 57).

richiesta(gualdo_tardino, strade, 0).
richiesta(gualdo_tardino, fiumi, 17).
richiesta(gualdo_tardino, scuole, 20).
richiesta(gualdo_tardino, parchi, 74).
richiesta(gualdo_tardino, energia, 84).

richiesta(magione, strade, 15).
richiesta(magione, fiumi, 68).
richiesta(magione, scuole, 78).
richiesta(magione, parchi, 30).
richiesta(magione, energia, 334).

richiesta(citta_di_castello, strade, 57).
richiesta(citta_di_castello, fiumi, 89).
richiesta(citta_di_castello, scuole, 54).
richiesta(citta_di_castello, parchi, 75).
richiesta(citta_di_castello, energia, 112).

richiesta(gubbio, strade, 52).
richiesta(gubbio, fiumi, 42).
richiesta(gubbio, scuole, 80).
richiesta(gubbio, parchi, 107).
richiesta(gubbio, energia, 86).

richiesta(marsciano, strade, 261).
richiesta(marsciano, fiumi, 75).
richiesta(marsciano, scuole, 71).
richiesta(marsciano, parchi, 13).
richiesta(marsciano, energia, 480).

richiesta(amelia, strade, 12).
richiesta(amelia, fiumi, 115).
richiesta(amelia, scuole, 139).
richiesta(amelia, parchi, 52).
richiesta(amelia, energia, 73).

richiesta(narni, strade, 91).
richiesta(narni, fiumi, 60).
richiesta(narni, scuole, 30).
richiesta(narni, parchi, 4).
richiesta(narni, energia, 69).

richiesta(umbertide, strade, 112).
richiesta(umbertide, fiumi, 279).
richiesta(umbertide, scuole, 401).
richiesta(umbertide, parchi, 98).
richiesta(umbertide, energia, 47).

richiesta(bastia_umbra, strade, 83).
richiesta(bastia_umbra, fiumi, 111).
richiesta(bastia_umbra, scuole, 97).
richiesta(bastia_umbra, parchi, 82).
richiesta(bastia_umbra, energia, 20).

richiesta(foligno, strade, 13).
richiesta(foligno, fiumi, 37).
richiesta(foligno, scuole, 189).
richiesta(foligno, parchi, 172).
richiesta(foligno, energia, 43).

richiesta(castiglione_del_lago, strade, 169).
richiesta(castiglione_del_lago, fiumi, 2).
richiesta(castiglione_del_lago, scuole, 40).
richiesta(castiglione_del_lago, parchi, 283).
richiesta(castiglione_del_lago, energia, 72).

richiesta(san_giustino, strade, 43).
richiesta(san_giustino, fiumi, 207).
richiesta(san_giustino, scuole, 33).
richiesta(san_giustino, parchi, 161).
richiesta(san_giustino, energia, 319).

richiesta(orvieto, strade, 64).
richiesta(orvieto, fiumi, 268).
richiesta(orvieto, scuole, 35).
richiesta(orvieto, parchi, 441).
richiesta(orvieto, energia, 60).

richiesta(todi, strade, 16).
richiesta(todi, fiumi, 11).
richiesta(todi, scuole, 10).
richiesta(todi, parchi, 99).
richiesta(todi, energia, 1).

