src/minizinc/benchmarks/large6.dzn
COMUNI = {
	spoleto,
	foligno,
	terni,
	gubbio,
	castiglione_del_lago,
	citta_di_castello,
	san_giustino,
	orvieto,
	bastia_umbra,
	amelia,
	gualdo_tardino,
	perugia,
	assisi,
	corciano,
	magione,
	todi,
	marsciano,
	umbertide,
	narni,
};

NUMERO_COMUNI = 19;

ABITANTI_PER_COMUNE = [36, 55, 106, 30, 15, 38, 11, 19, 21, 11, 14, 161, 27, 21, 14, 15, 18, 16, 17];

STRADE_TRA_COMUNI = [|
	false, false, true, false, false, false, false, false, false, false, false, false, false, false, false, false, false, false, false |
	false, false, false, false, false, false, false, false, false, false, false, false, true, false, false, false, false, false, false |
	true, false, false, false, false, false, false, false, false, false, false, false, false, false, false, false, false, false, true |
	false, false, false, false, false, false, false, false, false, false, true, false, false, false, false, false, false, true, false |
	false, false, false, false, false, false, false, false, false, false, false, false, false, false, true, false, false, false, false |
	false, false, false, false, false, false, true, false, false, false, false, false, false, false, false, false, false, true, false |
	false, false, false, false, false, true, false, false, false, false, false, false, false, false, false, false, false, false, false |
	false, false, false, false, false, false, false, false, false, false, false, false, false, false, false, true, false, false, false |
	false, false, false, false, false, false, false, false, false, false, false, true, true, false, false, false, false, false, false |
	false, false, false, false, false, false, false, false, false, false, false, false, false, false, false, true, false, false, true |
	false, false, false, true, false, false, false, false, false, false, false, false, false, false, false, false, false, false, false |
	false, false, false, false, false, false, false, false, true, false, false, false, false, true, false, false, true, true, false |
	false, true, false, false, false, false, false, false, true, false, false, false, false, false, false, false, false, false, false |
	false, false, false, false, false, false, false, false, false, false, false, true, false, false, true, false, false, false, false |
	false, false, false, false, true, false, false, false, false, false, false, false, false, true, false, false, false, false, false |
	false, false, false, false, false, false, false, true, false, true, false, false, false, false, false, false, true, false, false |
	false, false, false, false, false, false, false, false, false, false, false, true, false, false, false, true, false, false, false |
	false, false, false, true, false, true, false, false, false, false, false, true, false, false, false, false, false, false, false |
	false, false, true, false, false, false, false, false, false, true, false, false, false, false, false, false, false, false, false |
|];

RICHIESTE = [|
	2, 9, 22, 13, 16 |
	10, 12, 3, 33, 5 |
	12, 14, 6, 2, 6 |
	21, 0, 0, 0, 2 |
	3, 22, 2, 7, 7 |
	7, 8, 12, 15, 20 |
	1, 26, 7, 1, 9 |
	1, 17, 0, 20, 4 |
	10, 9, 0, 5, 7 |
	15, 17, 2, 2, 3 |
	6, 10, 25, 10, 24 |
	9, 74, 42, 8, 8 |
	1, 9, 7, 5, 17 |
	0, 13, 7, 5, 3 |
	9, 10, 3, 2, 5 |
	10, 11, 16, 9, 32 |
	6, 5, 43, 1, 8 |
	0, 13, 7, 5, 0 |
	5, 11, 1, 5, 8 |
|];
